benchmarks_vrp/CMT5/min_c/CMT5_11.vrp
NAME: CMT5_11
TYPE: CVRP
COMMENT: 1291.29 - Cluster Nr.11
DIMENSION: 12
CAPACITY: 200
EDGE_WEIGHT_TYPE: EUC_2D
NODE_COORD_TYPE: TWOD_COORDS
NODE_COORD_SECTION: 
11 20 40
1 26 52
5 30 50
10 27 43
12 25 55
3 20 50
6 21 45
7 30 48
8 22 53
2 21 47
9 21 48
4 35 35
DEPOT_SECTION: 
4
-1
DEMAND_SECTION: 
6 11
2 15
9 17
7 15
3 5
1 9
11 12
8 28
12 17
10 9
5 33
4 0
EOF
