benchmarks_vrp/CMT5/min_c/CMT5_11.tour
NAME: CMT5_11 solution
TYPE: TOUR
TOUR_SECTION:
4 7 5 1 12 8 3 9 2 6 11 10 -1
-1
EOF